NAME : rc_205.4.8377083.tour
COMMENT : Length = 8377083
COMMENT : Found by LKH [Keld Helsgaun] Tue Nov  7 19:55:48 2017
TYPE : TOUR
DIMENSION : 28
TOUR_SECTION
1
9
17
10
6
5
7
22
16
8
18
21
25
28
24
3
14
23
4
26
19
15
2
13
11
12
27
20
-1
EOF
